52	0

0	2	2	3
4	2	5	6
2	1	4
2	2	5	6
9	2	7	9
1	2	7	8
10	3	12	13	15
9	1	9
2	1	10
2	2	11	13
8	3	12	14	15
7	3	16	19	20
7	3	14	16	17
7	3	18	19	22
6	2	16	17
5	2	18	22
2	3	18	19	20
4	1	21
6	1	21
6	2	21	22
9	2	23	24
6	2	23	24
10	1	26
8	2	25	26
9	2	27	29
6	2	27	28
4	2	30	31
3	1	29
2	2	30	31
10	2	32	33
8	2	32	33
7	1	37
1	2	34	35
1	1	36
8	2	38	39
3	2	37	40
2	2	38	39
7	1	41
9	2	43	44
8	1	41
1	2	42	44
5	2	43	45
10	2	47	48
6	1	45
4	1	46
4	2	47	48
10	1	50
5	1	49
9	1	50
4	1	51
1	1	52
0	0
